Maximize
  obj: +0 x0 -0 x1 -0 x2 -0 x3 +0 x4 -0 x5 +0 x6 +0 x7 -0 x8 -0 x9 +0 x10 -0 x11 +0 x12 +0 x13 +0 x14 -0 x15 +0 x16 -0 x17 -0 x18 +0 x19 -85 x20 -127 x21 -114 x22 -99 x23 -160 x24 +30 x25 +157 x26 +89 x27 +1 x28 -104 x29 -23 x30 -42 x31 -79 x32 +74 x33 -73 x34 +145 x35 +98 x36 +84 x37 +51 x38 +163 x39 
Subject to
  c1: +9 x0 +0 x1 +0 x2 +0 x3 +0 x4 +0 x5 +0 x6 +20 x7 +0 x8 +3 x9 +0 x10 +0 x11 +6 x12 +0 x13 +0 x14 +0 x15 +9 x16 +0 x17 +0 x18 +0 x19 +18 x20 <= 81
  c2: +3 x0 +18 x1 +0 x2 +3 x3 +0 x4 +0 x5 +3 x6 +0 x7 +0 x8 +0 x9 +0 x10 +0 x11 +0 x12 +4 x13 +9 x14 +0 x15 +0 x16 +15 x17 +8 x18 +0 x19 +12 x21 <= 63
  c3: +9 x0 +1 x1 +0 x2 +0 x3 +2 x4 +13 x5 +11 x6 +11 x7 +0 x8 +0 x9 +0 x10 +9 x11 +0 x12 +15 x13 +3 x14 +11 x15 +6 x16 +0 x17 +0 x18 +15 x19 +18 x22 <= 98
  c4: +1 x0 +0 x1 +14 x2 +1 x3 +0 x4 +17 x5 +15 x6 +0 x7 +0 x8 +17 x9 +0 x10 +0 x11 +0 x12 +7 x13 +0 x14 -1 x15 +0 x16 +16 x17 +0 x18 +0 x19 +3 x23 <= 93
  c5: +0 x0 +15 x1 +0 x2 +0 x3 +0 x4 +0 x5 +0 x6 +0 x7 -1 x8 +0 x9 +0 x10 +6 x11 +0 x12 +0 x13 +9 x14 +0 x15 +0 x16 +0 x17 +0 x18 +0 x19 +3 x24 <= 81
  c6: +0 x0 +0 x1 +9 x2 +6 x3 +6 x4 +0 x5 +0 x6 +0 x7 +16 x8 +0 x9 +0 x10 +0 x11 +0 x12 +20 x13 +13 x14 +0 x15 +20 x16 +5 x17 +12 x18 +3 x19 +10 x25 <= 88
  c7: +0 x0 +0 x1 +18 x2 +0 x3 +9 x4 +5 x5 +7 x6 +0 x7 +2 x8 +0 x9 +0 x10 +20 x11 +0 x12 +0 x13 +15 x14 +11 x15 +3 x16 +8 x17 +0 x18 +0 x19 +3 x26 <= 89
  c8: +0 x0 +4 x1 +0 x2 +0 x3 +0 x4 +0 x5 +18 x6 +0 x7 +0 x8 +18 x9 +0 x10 +0 x11 +8 x12 +0 x13 +0 x14 -1 x15 +0 x16 +0 x17 +0 x18 +15 x19 +1 x27 <= 68
  c9: +0 x0 +0 x1 +0 x2 +0 x3 +0 x4 +0 x5 +17 x6 -1 x7 +3 x8 +17 x9 +11 x10 +8 x11 +0 x12 +8 x13 +0 x14 +0 x15 +0 x16 +0 x17 +20 x18 +9 x19 +7 x28 <= 50
  c10: +0 x0 +0 x1 +6 x2 +0 x3 +3 x4 +20 x5 -1 x6 +10 x7 +0 x8 +0 x9 +0 x10 +0 x11 +5 x12 +13 x13 +0 x14 +0 x15 +0 x16 +0 x17 +7 x18 +9 x19 +8 x29 <= 62
  c11: +3 x0 +0 x1 +0 x2 +0 x3 +0 x4 +0 x5 +15 x6 +0 x7 +0 x8 +0 x9 +0 x10 +2 x11 +14 x12 +0 x13 +0 x14 +0 x15 +8 x16 +2 x17 +0 x18 +0 x19 +2 x30 <= 56
  c12: +0 x0 +0 x1 +0 x2 +0 x3 +19 x4 +5 x5 +5 x6 +0 x7 +13 x8 +0 x9 +0 x10 +0 x11 +0 x12 +0 x13 +0 x14 +4 x15 +4 x16 +15 x17 +0 x18 +16 x19 +9 x31 <= 92
  c13: +0 x0 +0 x1 +0 x2 +15 x3 +0 x4 +18 x5 +0 x6 +16 x7 +0 x8 +0 x9 +8 x10 +0 x11 +0 x12 +17 x13 +0 x14 +0 x15 +8 x16 +0 x17 +3 x18 +0 x19 +2 x32 <= 53
  c14: +1 x0 +0 x1 -1 x2 +2 x3 +5 x4 +2 x5 +0 x6 +18 x7 +0 x8 +0 x9 +2 x10 +0 x11 +18 x12 +8 x13 +0 x14 +0 x15 +0 x16 +0 x17 +0 x18 +0 x19 +8 x33 <= 76
  c15: +0 x0 +0 x1 +0 x2 +0 x3 +7 x4 +0 x5 +0 x6 +15 x7 +6 x8 +0 x9 +0 x10 +0 x11 +12 x12 +19 x13 +7 x14 +12 x15 +0 x16 +9 x17 +0 x18 +0 x19 -1 x34 <= 55
  c16: +19 x0 +0 x1 +5 x2 +3 x3 -1 x4 +15 x5 +18 x6 +0 x7 +0 x8 +0 x9 +0 x10 +0 x11 +0 x12 +9 x13 +0 x14 +7 x15 +16 x16 +0 x17 +0 x18 +0 x19 +15 x35 <= 64
  c17: +0 x0 +10 x1 +20 x2 +8 x3 +7 x4 +0 x5 +0 x6 +9 x7 +0 x8 +0 x9 +5 x10 +3 x11 +15 x12 +0 x13 +0 x14 +1 x15 +0 x16 +0 x17 +0 x18 +0 x19 +18 x36 <= 95
  c18: +0 x0 +2 x1 +0 x2 +0 x3 +1 x4 +4 x5 +0 x6 +0 x7 +0 x8 +11 x9 +0 x10 +0 x11 +9 x12 +2 x13 +0 x14 +12 x15 +0 x16 +11 x17 +0 x18 +5 x19 -1 x37 <= 83
  c19: +0 x0 +1 x1 +0 x2 +0 x3 +5 x4 +20 x5 +0 x6 +0 x7 +11 x8 +0 x9 +0 x10 +0 x11 +15 x12 +1 x13 +0 x14 +16 x15 +0 x16 +0 x17 +6 x18 +17 x19 +8 x38 <= 61
  c20: +20 x0 +13 x1 +0 x2 +13 x3 +0 x4 +0 x5 +1 x6 +13 x7 +20 x8 +5 x9 +0 x10 +6 x11 +11 x12 +13 x13 +17 x14 +0 x15 +13 x16 +3 x17 +0 x18 +0 x19 +12 x39 <= 59
  c21: +0 x0 +0 x1 +3 x2 +0 x3 +18 x4 +0 x5 +0 x6 +7 x7 +0 x8 +2 x9 +15 x10 +0 x11 +0 x12 +6 x13 +0 x14 +0 x15 +0 x16 +13 x17 +0 x18 +0 x19 <= 83
  c22: +0 x0 +0 x1 +0 x2 +3 x3 +11 x4 -1 x5 +0 x6 +0 x7 +0 x8 +0 x9 +0 x10 +11 x11 +17 x12 +0 x13 +0 x14 +0 x15 +0 x16 +1 x17 +0 x18 +0 x19 <= 66
  c23: +0 x0 +4 x1 +20 x2 +0 x3 +0 x4 +0 x5 +8 x6 +0 x7 +0 x8 +19 x9 +0 x10 +0 x11 +11 x12 +9 x13 +0 x14 +0 x15 -1 x16 +0 x17 +0 x18 +0 x19 <= 51
  c24: +7 x0 +0 x1 +2 x2 +0 x3 +0 x4 +17 x5 +0 x6 +0 x7 +0 x8 +0 x9 +20 x10 +0 x11 +6 x12 +11 x13 +18 x14 +14 x15 +0 x16 +3 x17 +0 x18 +0 x19 <= 97
  c25: +15 x0 +0 x1 +0 x2 +0 x3 +0 x4 +18 x5 +3 x6 +7 x7 +11 x8 +20 x9 +0 x10 +8 x11 +5 x12 +0 x13 +0 x14 +0 x15 +0 x16 +13 x17 -1 x18 +12 x19 <= 61
  c26: +20 x0 +0 x1 +0 x2 +4 x3 +0 x4 +0 x5 +18 x6 +0 x7 +11 x8 +0 x9 +13 x10 +14 x11 +7 x12 +6 x13 +0 x14 +14 x15 +13 x16 +0 x17 +7 x18 +0 x19 <= 73
  c27: +0 x0 +0 x1 +17 x2 +0 x3 +6 x4 +0 x5 +10 x6 +11 x7 +4 x8 +7 x9 +0 x10 +4 x11 +11 x12 +16 x13 +0 x14 +0 x15 -1 x16 +9 x17 +7 x18 +9 x19 <= 87
  c28: +2 x0 +0 x1 +0 x2 +20 x3 -1 x4 +2 x5 +5 x6 +0 x7 +0 x8 +0 x9 +0 x10 +0 x11 +14 x12 +15 x13 +4 x14 +7 x15 +6 x16 +12 x17 +13 x18 -1 x19 <= 84
  c29: +11 x0 +0 x1 +6 x2 +0 x3 +0 x4 +13 x5 +0 x6 +2 x7 +0 x8 +0 x9 +0 x10 +0 x11 +0 x12 +0 x13 +0 x14 +0 x15 +0 x16 +2 x17 +4 x18 +8 x19 <= 88
  c30: +15 x0 +7 x1 +0 x2 +0 x3 +0 x4 +0 x5 +0 x6 +0 x7 +0 x8 +7 x9 -1 x10 +0 x11 +16 x12 +0 x13 +0 x14 +14 x15 +0 x16 +4 x17 +0 x18 +0 x19 <= 98
  c31: +6 x0 +0 x1 +0 x2 +12 x3 +0 x4 +0 x5 +14 x6 +0 x7 +0 x8 +0 x9 +0 x10 +0 x11 +19 x12 +19 x13 +0 x14 +13 x15 +0 x16 +20 x17 +0 x18 +7 x19 <= 84
  c32: +17 x0 +9 x1 +0 x2 +0 x3 +9 x4 +18 x5 +0 x6 +5 x7 +0 x8 +0 x9 +0 x10 +17 x11 +20 x12 +0 x13 +0 x14 +0 x15 +0 x16 +2 x17 +0 x18 +12 x19 <= 94
  c33: +2 x0 +0 x1 +0 x2 +0 x3 +0 x4 +0 x5 +0 x6 +2 x7 +19 x8 +13 x9 +10 x10 +18 x11 +0 x12 +0 x13 +0 x14 +5 x15 +1 x16 +0 x17 +0 x18 +0 x19 <= 85
  c34: +0 x0 +14 x1 +10 x2 +5 x3 +9 x4 +0 x5 +0 x6 +13 x7 +18 x8 +18 x9 +0 x10 +11 x11 +19 x12 +3 x13 +0 x14 +12 x15 +17 x16 +0 x17 +0 x18 +0 x19 <= 55
  c35: +17 x0 +15 x1 +15 x2 +0 x3 +0 x4 -1 x5 +0 x6 +18 x7 +0 x8 +0 x9 +0 x10 +0 x11 +20 x12 +15 x13 +0 x14 +1 x15 +4 x16 +0 x17 +14 x18 +0 x19 <= 86
  c36: +9 x0 +0 x1 +2 x2 +10 x3 +0 x4 +0 x5 +0 x6 +19 x7 +0 x8 +0 x9 +0 x10 +20 x11 +18 x12 +0 x13 +17 x14 +3 x15 +0 x16 +17 x17 +0 x18 +0 x19 <= 65
  c37: +0 x0 +0 x1 +12 x2 +0 x3 +11 x4 +0 x5 +20 x6 +0 x7 +0 x8 +0 x9 +4 x10 +0 x11 +0 x12 +7 x13 +17 x14 +0 x15 +0 x16 +0 x17 +0 x18 +6 x19 <= 93
  c38: +0 x0 +0 x1 +12 x2 +0 x3 +0 x4 +0 x5 +0 x6 -1 x7 +19 x8 +0 x9 +18 x10 +17 x11 +5 x12 +0 x13 +9 x14 +0 x15 +0 x16 +0 x17 +0 x18 +13 x19 <= 74
  c39: +0 x0 +20 x1 +0 x2 +0 x3 +13 x4 +0 x5 +5 x6 +0 x7 +0 x8 +2 x9 +1 x10 +0 x11 +0 x12 +20 x13 +0 x14 +6 x15 +15 x16 +0 x17 +0 x18 +0 x19 <= 83
  c40: + x20 + x21 + x22 + x23 + x24 + x25 + x26 + x27 + x28 + x29 + x30 + x31 + x32 + x33 + x34 + x35 + x36 + x37 + x38 + x39 <= 6.666667
Binary
 x20
 x21
 x22
 x23
 x24
 x25
 x26
 x27
 x28
 x29
 x30
 x31
 x32
 x33
 x34
 x35
 x36
 x37
 x38
 x39
End
